!OPT def2-SVP PBE
*xyzfile 0 1 C:\Nanocar\walkthrough\walkthrough.xyz
